p edge 45 72
p 1 10
p 1 19
p 1 22
p 1 25
p 2 11
p 2 28
p 2 31
p 2 34
p 3 12
p 3 37
p 3 40
p 3 43
p 4 13
p 4 23
p 4 29
p 4 44
p 5 14
p 5 20
p 5 32
p 5 41
p 6 15
p 6 26
p 6 35
p 6 38
p 7 16
p 7 27
p 7 33
p 7 45
p 8 17
p 8 24
p 8 36
p 8 42
p 9 18
p 9 21
p 9 30
p 9 39
p 10 11
p 10 12
p 11 12
p 13 14
p 13 15
p 14 15
p 16 17
p 16 18
p 17 18
p 19 20
p 19 21
p 20 21
p 22 23
p 22 24
p 23 24
p 25 26
p 25 27
p 26 27
p 28 29
p 28 30
p 29 30
p 31 32
p 31 33
p 32 33
p 34 35
p 34 36
p 35 36
p 37 38
p 37 39
p 38 39
p 40 41
p 40 42
p 41 42
p 43 44
p 43 45
p 44 45
